51 300 163 164 171 183 150 170 194 175 168 177 195 191 195 152 200 180 185 164 189 164 200 177 154 169 166 190 191 154 174 187 154 188 150 200 170 175 169 164 200 162 165 195 152 159 171 177 163 180 191 151 194 